WARNING: for repeatability, setting FPU to use double precision
============================[ Problem Statistics ]=============================
|                                                                             |
|  Number of variables:            50                                         |
|  Number of clauses:             218                                         |
|  Parse time:                   0.00 s                                       |
|                                                                             |
============================[ Search Statistics ]==============================
| Conflicts |          ORIGINAL         |          LEARNT          | Progress |
|           |    Vars  Clauses Literals |    Limit  Clauses Lit/Cl |          |
===============================================================================
===============================================================================
restarts              : 1
conflicts             : 49             (201646 /sec)
decisions             : 54             (0.00 % random) (222222 /sec)
propagations          : 617            (2539095 /sec)
conflict literals     : 149            (23.59 % deleted)
Memory used           : 20.00 MB
CPU time              : 0.000243 s

UNSATISFIABLE
